* ENCODING=ISO-8859-1
NAME          CPLEX
ROWS
 N  obj1    
 G  c1      
 G  c2      
 G  c3      
 G  c4      
 G  c5      
 G  c6      
 G  c7      
 G  c8      
 G  c9      
 G  c10     
 G  c11     
 G  c12     
 G  c13     
 G  c14     
 G  c15     
 G  c16     
 G  c17     
 G  c18     
 G  c19     
 G  c20     
 G  c21     
 G  c22     
 G  c23     
 G  c24     
 G  c25     
 G  c26     
 G  c27     
 G  c28     
 G  c29     
 G  c30     
 G  c31     
 G  c32     
 G  c33     
 G  c34     
 G  c35     
 G  c36     
 G  c37     
 G  c38     
 G  c39     
 G  c40     
 G  c41     
 G  c42     
 G  c43     
 G  c44     
 G  c45     
 G  c46     
 G  c47     
 G  c48     
 G  c49     
 G  c50     
 G  c51     
 G  c52     
 G  c53     
 G  c54     
 G  c55     
 G  c56     
 G  c57     
 G  c58     
 G  c59     
 G  c60     
COLUMNS
    MARK0000  'MARKER'                 'INTORG'
    x1        obj1                            1
    x1        c2                            851
    x1        c6                            310
    x1        c10                           686
    x1        c15                           635
    x1        c30                           632
    x1        c31                           168
    x1        c60                           873
    x2        obj1                            1
    x2        c8                            241
    x2        c11                           888
    x2        c14                           493
    x2        c30                           969
    x2        c42                           365
    x2        c45                           450
    x2        c46                           200
    x2        c58                           657
    x3        obj1                            1
    x3        c25                           832
    x3        c33                           984
    x3        c60                           258
    x4        obj1                            1
    x4        c4                            204
    x4        c10                           284
    x4        c13                           275
    x4        c16                           711
    x4        c19                           193
    x4        c23                           184
    x4        c25                           672
    x4        c29                           182
    x4        c32                           298
    x4        c36                           364
    x4        c50                           329
    x4        c52                           696
    x4        c54                           800
    x4        c59                           793
    x5        obj1                            1
    x5        c10                           633
    x5        c11                           335
    x5        c21                           123
    x5        c23                           325
    x5        c32                           992
    x5        c53                           696
    x5        c56                           259
    x6        obj1                            1
    x6        c5                            886
    x6        c17                           854
    x6        c23                           382
    x6        c26                           413
    x6        c48                           997
    x6        c54                           821
    x6        c56                           907
    x7        obj1                            1
    x7        c1                            386
    x7        c15                           527
    x7        c18                           154
    x7        c47                           391
    x7        c57                           759
    x8        obj1                            1
    x8        c9                            743
    x8        c10                           487
    x8        c13                           287
    x8        c16                           234
    x8        c28                           825
    x8        c44                           567
    x8        c48                           712
    x9        obj1                            1
    x9        c6                            650
    x9        c24                           467
    x9        c35                           526
    x9        c46                           620
    x10       obj1                            1
    x10       c4                            663
    x10       c18                           551
    x10       c19                           794
    x10       c32                           444
    x10       c34                           910
    x10       c42                           921
    x10       c54                           148
    x11       obj1                            1
    x11       c5                            216
    x11       c31                           833
    x11       c36                           194
    x11       c50                           615
    x11       c51                           473
    x12       obj1                            1
    x12       c19                           115
    x12       c24                           473
    x12       c35                           520
    x12       c40                           860
    x12       c42                           268
    x13       obj1                            1
    x13       c16                           938
    x13       c19                           329
    x13       c39                           694
    x13       c46                           463
    x13       c50                           501
    x13       c55                          1000
    x14       obj1                            1
    x14       c6                            267
    x14       c13                           175
    x14       c34                           526
    x14       c35                           539
    x14       c37                           981
    x14       c46                           448
    x14       c47                           929
    x14       c54                           771
    x14       c56                           331
    x15       obj1                            1
    x15       c19                           173
    x15       c35                           641
    x15       c38                           168
    x15       c60                           241
    x16       obj1                            1
    x16       c2                            919
    x16       c8                            578
    x16       c14                           564
    x16       c22                           838
    x16       c44                           874
    x17       obj1                            1
    x17       c1                            347
    x17       c9                            275
    x17       c23                           467
    x17       c36                           326
    x18       obj1                            1
    x18       c9                            672
    x18       c16                           264
    x18       c33                           599
    x18       c38                           755
    x18       c40                           215
    x18       c41                           111
    x19       obj1                            1
    x19       c5                            223
    x19       c12                           762
    x19       c15                           139
    x19       c17                           845
    x19       c29                           396
    x19       c35                           243
    x19       c40                           683
    x19       c46                           852
    x19       c48                           778
    x20       obj1                            1
    x20       c14                           827
    x20       c24                           398
    x20       c30                           192
    x20       c37                           329
    x20       c40                           103
    x20       c42                           134
    x20       c47                           201
    x21       obj1                            1
    x21       c29                           254
    x21       c31                           510
    x21       c33                           593
    x21       c43                           597
    x21       c49                           493
    x21       c51                           362
    x21       c53                           951
    x21       c60                           845
    x22       obj1                            1
    x22       c2                            245
    x22       c16                           764
    x22       c20                           406
    x22       c38                           918
    x22       c48                           446
    x22       c51                           917
    x22       c58                           330
    x22       c60                           488
    x23       obj1                            1
    x23       c3                            825
    x23       c11                           745
    x23       c27                           748
    x23       c31                           729
    x23       c43                           244
    x24       obj1                            1
    x24       c1                            836
    x24       c5                            111
    x24       c7                            928
    x24       c10                           938
    x24       c19                           236
    x24       c32                           840
    x24       c37                           837
    x24       c41                           805
    x24       c47                           144
    x24       c56                           355
    x24       c59                           657
    x25       obj1                            1
    x25       c3                            187
    x25       c21                           652
    x25       c42                           517
    x25       c45                           795
    x25       c50                           153
    x25       c52                           666
    x25       c57                           793
    x26       obj1                            1
    x26       c26                           729
    x26       c28                           838
    x26       c54                           131
    x26       c59                           610
    x27       obj1                            1
    x27       c15                           889
    x27       c17                           814
    x27       c20                           313
    x27       c33                           369
    x27       c36                           276
    x28       obj1                            1
    x28       c2                            969
    x28       c7                            296
    x28       c35                           474
    x28       c50                           423
    x28       c52                           128
    x28       c58                           615
    x28       c60                           122
    x29       obj1                            1
    x29       c1                            796
    x29       c3                            597
    x29       c4                            217
    x29       c9                            340
    x29       c17                           354
    x29       c42                           615
    x29       c50                           546
    x30       obj1                            1
    x30       c11                           668
    x30       c14                           255
    x30       c16                           646
    x30       c22                           901
    x30       c27                           668
    x30       c29                           336
    x30       c31                           241
    x30       c33                           102
    x30       c41                           297
    x31       obj1                            1
    x31       c11                           205
    x31       c30                           786
    x31       c39                           748
    x31       c42                           392
    x31       c45                           657
    x31       c49                           116
    x32       obj1                            1
    x32       c8                            177
    x32       c9                            387
    x32       c16                           393
    x32       c23                           356
    x32       c31                           753
    x32       c32                           249
    x32       c37                           667
    x32       c57                           759
    x33       obj1                            1
    x33       c12                           766
    x33       c19                           799
    x33       c23                           564
    x33       c27                           746
    x33       c59                           279
    x34       obj1                            1
    x34       c2                            211
    x34       c8                            371
    x34       c19                           803
    x34       c27                           547
    x34       c28                           378
    x34       c46                           509
    x34       c56                           906
    x35       obj1                            1
    x35       c8                            585
    x35       c22                           272
    x35       c35                           148
    x35       c48                           608
    x35       c53                           765
    x35       c57                           212
    x35       c60                           844
    x36       obj1                            1
    x36       c12                           992
    x36       c14                           525
    x36       c19                           637
    x36       c20                           974
    x36       c48                           915
    x37       obj1                            1
    x37       c12                           527
    x37       c22                           996
    x37       c25                           632
    x37       c27                           510
    x37       c54                           322
    x38       obj1                            1
    x38       c12                           296
    x38       c15                           856
    x38       c17                           534
    x38       c21                           306
    x38       c37                           364
    x38       c53                           367
    x39       obj1                            1
    x39       c12                           135
    x39       c14                           805
    x39       c15                           852
    x39       c25                           203
    x39       c38                           855
    x39       c43                           566
    x39       c48                           655
    x39       c49                           955
    x39       c56                           283
    x39       c60                           351
    x40       obj1                            1
    x40       c1                            572
    x40       c4                            108
    x40       c16                           766
    x40       c25                           813
    x40       c38                           195
    x40       c41                           224
    x40       c52                           223
    x41       obj1                            1
    x41       c10                           140
    x41       c14                           827
    x41       c23                           241
    x41       c27                           882
    x41       c28                           212
    x41       c34                           414
    x41       c43                           907
    x41       c54                           427
    x41       c56                           165
    x42       obj1                            1
    x42       c5                            788
    x42       c14                           776
    x42       c29                           893
    x42       c33                           171
    x42       c40                           977
    x42       c49                           178
    x43       obj1                            1
    x43       c17                           479
    x43       c22                           861
    x43       c30                           770
    x43       c42                           997
    x43       c47                           822
    x43       c50                           300
    x43       c52                           826
    x43       c55                           917
    x43       c57                           798
    x44       obj1                            1
    x44       c21                           609
    x44       c33                           768
    x44       c53                           324
    x44       c54                           729
    x44       c55                           389
    x44       c57                           623
    x45       obj1                            1
    x45       c16                           703
    x45       c21                           819
    x45       c22                           901
    x45       c23                           468
    x45       c24                           715
    x45       c50                           571
    x45       c51                           450
    x46       obj1                            1
    x46       c3                            717
    x46       c22                           638
    x46       c46                           529
    x47       obj1                            1
    x47       c13                           504
    x47       c22                           379
    x47       c30                           899
    x47       c39                           783
    x47       c42                           947
    x48       obj1                            1
    x48       c29                           364
    x48       c31                           455
    x48       c36                           882
    x48       c37                           252
    x48       c52                           250
    x48       c60                           848
    x49       obj1                            1
    x49       c17                           477
    x49       c21                           159
    x49       c43                           229
    x49       c45                           986
    x50       obj1                            1
    x50       c2                            733
    x50       c15                           255
    x50       c21                           222
    x50       c25                           962
    x50       c55                           712
    x50       c57                           596
    x51       obj1                            1
    x51       c3                            678
    x51       c4                            809
    x51       c17                           439
    x51       c18                           488
    x51       c25                           393
    x51       c28                           583
    x52       obj1                            1
    x52       c26                           700
    x52       c30                           628
    x52       c40                           417
    x52       c58                           693
    x53       obj1                            1
    x53       c2                            420
    x53       c6                            377
    x53       c12                           305
    x53       c24                           655
    x53       c25                           735
    x53       c37                           140
    x53       c39                           709
    x53       c53                           637
    x53       c54                           503
    x54       obj1                            1
    x54       c5                            875
    x54       c22                           322
    x54       c31                           767
    x54       c33                           922
    x54       c44                           706
    x55       obj1                            1
    x55       c10                           611
    x55       c11                           448
    x55       c15                           593
    x55       c20                           272
    x55       c29                           859
    x55       c30                           381
    x55       c37                           119
    x56       obj1                            1
    x56       c7                            436
    x56       c14                           517
    x56       c27                           467
    x56       c35                           824
    x57       obj1                            1
    x57       c1                            973
    x57       c2                            539
    x57       c4                            413
    x57       c6                            163
    x57       c8                            891
    x57       c21                           937
    x57       c29                           543
    x57       c36                           226
    x57       c48                           366
    x58       obj1                            1
    x58       c9                            933
    x58       c27                           917
    x58       c36                           646
    x58       c40                           387
    x58       c43                           501
    x58       c46                           972
    x58       c47                           748
    x58       c52                           170
    x58       c57                           914
    x59       obj1                            1
    x59       c40                           816
    x59       c48                           410
    x59       c57                           875
    x60       obj1                            1
    x60       c15                           382
    x60       c23                           667
    x60       c28                           264
    x60       c29                           866
    MARK0001  'MARKER'                 'INTEND'
RHS
    rhs       c1                           1955
    rhs       c2                           2444
    rhs       c3                           1502
    rhs       c4                           1207
    rhs       c5                           1550
    rhs       c6                            884
    rhs       c7                            830
    rhs       c8                           1422
    rhs       c9                           1675
    rhs       c10                          1890
    rhs       c11                          1645
    rhs       c12                          1892
    rhs       c13                           621
    rhs       c14                          2795
    rhs       c15                          2564
    rhs       c16                          2710
    rhs       c17                          2398
    rhs       c18                           597
    rhs       c19                          2040
    rhs       c20                           983
    rhs       c21                          1914
    rhs       c22                          3054
    rhs       c23                          1827
    rhs       c24                          1354
    rhs       c25                          2621
    rhs       c26                           921
    rhs       c27                          2743
    rhs       c28                          1550
    rhs       c29                          2347
    rhs       c30                          2629
    rhs       c31                          2228
    rhs       c32                          1412
    rhs       c33                          2254
    rhs       c34                           925
    rhs       c35                          1958
    rhs       c36                          1457
    rhs       c37                          1845
    rhs       c38                          1446
    rhs       c39                          1467
    rhs       c40                          2229
    rhs       c41                           719
    rhs       c42                          2578
    rhs       c43                          1522
    rhs       c44                          1074
    rhs       c45                          1444
    rhs       c46                          2297
    rhs       c47                          1618
    rhs       c48                          2944
    rhs       c49                           871
    rhs       c50                          1719
    rhs       c51                          1101
    rhs       c52                          1480
    rhs       c53                          1870
    rhs       c54                          2326
    rhs       c55                          1509
    rhs       c56                          1603
    rhs       c57                          3165
    rhs       c58                          1148
    rhs       c59                          1170
    rhs       c60                          2435
BOUNDS
 LI bnd       x1        0
 LI bnd       x2        0
 LI bnd       x3        0
 LI bnd       x4        0
 LI bnd       x5        0
 LI bnd       x6        0
 LI bnd       x7        0
 LI bnd       x8        0
 LI bnd       x9        0
 LI bnd       x10       0
 LI bnd       x11       0
 LI bnd       x12       0
 LI bnd       x13       0
 LI bnd       x14       0
 LI bnd       x15       0
 LI bnd       x16       0
 LI bnd       x17       0
 LI bnd       x18       0
 LI bnd       x19       0
 LI bnd       x20       0
 LI bnd       x21       0
 LI bnd       x22       0
 LI bnd       x23       0
 LI bnd       x24       0
 LI bnd       x25       0
 LI bnd       x26       0
 LI bnd       x27       0
 LI bnd       x28       0
 LI bnd       x29       0
 LI bnd       x30       0
 LI bnd       x31       0
 LI bnd       x32       0
 LI bnd       x33       0
 LI bnd       x34       0
 LI bnd       x35       0
 LI bnd       x36       0
 LI bnd       x37       0
 LI bnd       x38       0
 LI bnd       x39       0
 LI bnd       x40       0
 LI bnd       x41       0
 LI bnd       x42       0
 LI bnd       x43       0
 LI bnd       x44       0
 LI bnd       x45       0
 LI bnd       x46       0
 LI bnd       x47       0
 LI bnd       x48       0
 LI bnd       x49       0
 LI bnd       x50       0
 LI bnd       x51       0
 LI bnd       x52       0
 LI bnd       x53       0
 LI bnd       x54       0
 LI bnd       x55       0
 LI bnd       x56       0
 LI bnd       x57       0
 LI bnd       x58       0
 LI bnd       x59       0
 LI bnd       x60       0
ENDATA
